
Gurobi 12.0.2 (mac64[arm]) logging started Fri Jun 13 21:13:32 2025

Set parameter LogFile to value "/Users/yurunfeng/Documents/GitHub/LRGTS-store-location/result/gurobi/snyder/88nodes/88-0.9-3.log"
Gurobi Optimizer version 12.0.2 build v12.0.2rc0 (mac64[arm] - Darwin 24.5.0 24F74)

CPU model: Apple M4
Thread count: 10 physical cores, 10 logical processors, using up to 10 threads

Non-default parameters:
TimeLimit  1200

Optimize a model with 728288 rows, 1378696 columns and 6524758 nonzeros
Model fingerprint: 0xb27ff377
Variable types: 689304 continuous, 689392 integer (689392 binary)
Coefficient statistics:
  Matrix range     [1e-01, 1e+00]
  Objective range  [8e+00, 7e+06]
  Bounds range     [1e+00, 1e+00]
  RHS range        [1e+00, 3e+00]
Found heuristic solution: objective 4.484057e+07
Presolve removed 15664 rows and 7832 columns (presolve time = 5s)...
Presolve removed 15664 rows and 7832 columns (presolve time = 10s)...
Presolve removed 15664 rows and 7832 columns
Presolve time: 11.61s
Presolved: 712624 rows, 1370864 columns, 5831441 nonzeros
Variable types: 681472 continuous, 689392 integer (689392 binary)
Deterministic concurrent LP optimizer: primal simplex, dual simplex, and barrier
Showing barrier log only...

Root barrier log...

Ordering time: 2.24s

Barrier performed 0 iterations in 16.07 seconds (40.84 work units)
Barrier solve interrupted - model solved by another algorithm

Concurrent spin time: 1.09s (can be avoided by choosing Method=3)

Solved with dual simplex

Root simplex log...

Iteration    Objective       Primal Inf.    Dual Inf.      Time
    7330    1.4605513e+06   0.000000e+00   0.000000e+00     16s

Root relaxation: objective 1.460551e+06, 7330 iterations, 4.03 seconds (6.93 work units)

    Nodes    |    Current Node    |     Objective Bounds      |     Work
 Expl Unexpl |  Obj  Depth IntInf | Incumbent    BestBd   Gap | It/Node Time

     0     0 1460551.25    0 1854 4.4841e+07 1460551.25  96.7%     -   18s
H    0     0                    2339729.8856 1460551.25  37.6%     -   25s
H    0     0                    2092097.0882 1460551.25  30.2%     -   31s
     0     0 1490053.27    0 3949 2092097.09 1490053.27  28.8%     -   98s
     0     0 1493799.22    0 4071 2092097.09 1493799.22  28.6%     -  100s
H    0     0                    2070279.5067 1493799.22  27.8%     -  118s
H    0     0                    2066376.1252 1493799.22  27.7%     -  118s
H    0     0                    2055980.5612 1493799.22  27.3%     -  118s
H    0     0                    2054508.5589 1493799.22  27.3%     -  118s
H    0     0                    2053539.7042 1493799.22  27.3%     -  118s
     0     0 1495477.39    0 4146 2053539.70 1495477.39  27.2%     -  120s
     0     0 1686680.89    0 3348 2053539.70 1686680.89  17.9%     - 1134s
     0     0 1688859.99    0 3586 2053539.70 1688859.99  17.8%     - 1170s
     0     0 1689784.41    0 3526 2053539.70 1689784.41  17.7%     - 1192s
     0     0          -    0      2053539.70 1689784.41  17.7%     - 1200s

Explored 1 nodes (395844 simplex iterations) in 1200.13 seconds (3425.75 work units)
Thread count was 10 (of 10 available processors)

Solution count 9: 2.05354e+06 2.05354e+06 2.05451e+06 ... 4.48406e+07

Time limit reached
Best objective 2.053539704105e+06, best bound 1.689784413056e+06, gap 17.7136%
